17	4	3
42	37	43	48	23	41	29	
0	0	0	0	0	1	4	6	1	8	9	3	2	3	4
1	2	5	2	8	6	7	3	3	7	1	3	5	12	17
4	6	7	6	9	3	5	2	5	5	3	2	11	16
2	5	8	7	3	2	3	1	2	3	3	3	9	11	13
2	10	5	4	3	2	2	3	1	5	7	3	6	7	8
125	3	7	7	4	2	6	10	7	6	8	1	17
150	4	1	2	4	6	2	5	8	5	1	2	14	17
100	1	4	3	8	9	7	5	10	1	10	2	10	11
250	4	1	3	7	2	3	3	3	4	5	3	15	16	17
175	1	7	1	4	5	6	7	7	7	2	1	17
175	4	6	10	4	4	8	7	3	4	3	1	17
225	7	2	7	3	1	9	5	5	7	9	2	17	17
5	8	9	9	10	5	5	5	10	5	6	1	17
3	7	6	3	9	10	7	8	2	9	2	1	17
2	10	5	2	2	7	4	8	3	10	4	1	17
3	2	2	1	1	4	3	1	1	6	5	1	17
0	0	0	0	0	3	7	4	7	1	1	0
